NAME : amz2614.70203_59703.tour
COMMENT : Cost = 70203_59703
COMMENT : Found by LKH-AMZ [Keld Helsgaun] Sun May 11 14:03:53 2025
COMMENT : TW viol.: 0 #: 0
TYPE : TOUR
DIMENSION : 86
TOUR_SECTION
1
13
42
26
45
67
28
9
31
41
60
61
77
35
65
53
54
7
72
81
79
44
25
10
62
82
24
2
64
27
47
38
59
80
11
84
43
71
66
50
48
16
34
18
14
29
4
32
36
55
76
69
49
86
56
17
83
63
15
33
68
57
70
3
37
52
40
21
30
74
39
12
23
51
75
78
6
20
73
8
85
22
58
46
19
5
-1
EOF
